objective value:                                 9265
U_0_2_0                                             1 	(obj:50)
U_1_0_2                                             1 	(obj:50)
U_2_1_1                                             1 	(obj:50)
U_3_0_0                                             1 	(obj:50)
U_4_1_0                                             1 	(obj:65)
A_1_0_2                                           400 	(obj:5)
A_0_2_0                                           400 	(obj:4)
A_3_0_0                                           300 	(obj:9)
A_4_1_0                                           100 	(obj:7)
A_2_1_1                                           500 	(obj:4)
